Gurobi 12.0.3:   lim:time = 14400

  mip:bestbound = 1

Set parameter LogToConsole to value 1

  tech:outlev = 1

Set parameter Cuts to value 3

  cut:cuts = 3

Set parameter Presolve to value 2

  pre:solve = 2

Set parameter MIPFocus to value 2

  mip:focus = 2

Set parameter Symmetry to value 2

  mip:symmetry = 2

Set parameter InfUnbdInfo to value 1

Gurobi Optimizer version 12.0.3 build v12.0.3rc0 (win64 - Windows 11.0 (26100.2))



CPU model: 12th Gen Intel(R) Core(TM) i7-12700, instruction set [SSE2|AVX|AVX2]

Thread count: 12 physical cores, 20 logical processors, using up to 20 threads



Non-default parameters:

TimeLimit  14400

MIPFocus  2

Symmetry  2

Cuts  3

InfUnbdInfo  1

Presolve  2



Optimize a model with 505 rows, 843 columns and 4989 nonzeros

Model fingerprint: 0x1034bdaf

Model has 2 quadratic objective terms

Model has 8 quadratic constraints

Variable types: 37 continuous, 806 integer (0 binary)

Coefficient statistics:

  Matrix range     [1e+00, 1e+05]

  QMatrix range    [1e+00, 1e+00]

  QLMatrix range   [1e+00, 2e+01]

  Objective range  [7e+00, 1e+02]

  QObjective range [3e+00, 3e+00]

  Bounds range     [1e+00, 1e+02]

  RHS range        [1e+00, 1e+05]

  QRHS range       [1e+02, 1e+02]

Presolve removed 48 rows and 122 columns

Presolve time: 0.32s

Presolved: 1017 rows, 1181 columns, 7270 nonzeros

Variable types: 17 continuous, 1164 integer (1068 binary)

Found heuristic solution: objective 655.8700000

Root relaxation presolve removed 67 rows and 0 columns

Root relaxation presolved: 577 rows, 908 columns, 6474 nonzeros





Root relaxation: objective 1.284383e+02, 73 iterations, 0.01 seconds (0.01 work units)



    Nodes    |    Current Node    |     Objective Bounds      |     Work

 Expl Unexpl |  Obj  Depth IntInf | Incumbent    BestBd   Gap | It/Node Time



     0     0  128.43830    0   36  655.87000  128.43830  80.4%     -    0s

H    0     0                     534.5000000  128.43830  76.0%     -    0s

H    0     0                     500.9100000  128.43830  74.4%     -    0s

H    0     0                     483.8500000  128.43830  73.5%     -    0s

H    0     0                     461.2500000  128.43830  72.2%     -    0s

H    0     0                     385.5400000  176.70040  54.2%     -    0s

     0     0  187.07000    0   32  385.54000  187.07000  51.5%     -    0s

     0     0  187.07000    0   30  385.54000  187.07000  51.5%     -    0s

     0     0  187.07000    0   20  385.54000  187.07000  51.5%     -    0s

H    0     0                     379.7100000  196.84821  48.2%     -    0s

H    0     0                     368.6700000  196.84821  46.6%     -    0s

H    0     0                     367.8300000  196.84821  46.5%     -    0s

     0     0  196.84821    0   27  367.83000  196.84821  46.5%     -    0s

     0     0  198.29789    0   27  367.83000  198.29789  46.1%     -    0s

     0     0  217.00667    0   30  367.83000  217.00667  41.0%     -    1s

     0     0  219.92333    0   37  367.83000  219.92333  40.2%     -    1s

     0     0  219.92333    0   37  367.83000  219.92333  40.2%     -    1s

     0     0  233.03858    0   71  367.83000  233.03858  36.6%     -    1s

     0     0  233.52604    0   71  367.83000  233.52604  36.5%     -    1s

     0     0  266.92865    0   73  367.83000  266.92865  27.4%     -    1s

     0     0  266.97650    0   73  367.83000  266.97650  27.4%     -    1s

     0     2  267.25099    0   72  367.83000  267.25099  27.3%     -    1s

H  122   110                     367.0100000  269.54880  26.6%  24.6    1s

H  425   261                     364.1100000  273.25118  25.0%  15.9    1s

H  802   422                     358.8900000  278.87000  22.3%  16.9    1s

* 2741   932              21     348.2000000  295.30286  15.2%  14.1    2s



Cutting planes:

  Learned: 6

  Gomory: 34

  Lift-and-project: 10

  Cover: 1

  Implied bound: 67

  Projected implied bound: 3

  Clique: 8

  MIR: 53

  StrongCG: 27

  Flow cover: 296

  GUB cover: 1

  Inf proof: 20

  Zero half: 174

  RLT: 183

  Relax-and-lift: 5



Explored 12592 nodes (159673 simplex iterations) in 3.89 seconds (3.96 work units)

Thread count was 20 (of 20 available processors)



Solution count 10: 348.2 358.89 364.11 ... 483.85



Optimal solution found (tolerance 1.00e-04)

Best objective 3.482000000000e+02, best bound 3.482000000000e+02, gap 0.0000%



AMPL MP initial flat model has 843 variables (0 integer, 806 binary);

Objectives: 1 quadratic; 

Constraints:  505 linear; 8 quadratic;



AMPL MP final model has 843 variables (0 integer, 806 binary);

Objectives: 1 quadratic; 

Constraints:  505 linear; 8 quadratic;





-----RESULTS INFO-----
running_time:  3.9379999999999997
TC.best_bound:  348.1999999999999
TC:  348.20000000000005
MIP Gap (%):  4.8974800856526136e-14
=== Vehicle Routes ===
Vehicle 1: 0 → 14
Vehicle 1: 1 → 3
Vehicle 1: 2 → 18
Vehicle 1: 3 → 21
Vehicle 1: 4 → 2
Vehicle 1: 14 → 4
Vehicle 1: 18 → 1
Vehicle 2: 0 → 11
Vehicle 2: 11 → 15
Vehicle 2: 15 → 21
Vehicle 3: 0 → 21
Vehicle 4: 0 → 21

=== Full Vehicle Routes ===
Vehicle 1: 0 → 14 → 4 → 2 → 18 → 1 → 3 → 0 (87<100)
Vehicle 2: 0 → 11 → 15 → 0 (48<100)
Vehicle 3: 0 → 0 (0<100)
Vehicle 4: 0 → 0 (0<100)
Arc used by MRT line: y variables:
MRT used: 11 → 12
MRT used: 14 → 13
Customer assigment to PL: u variables:
5 12
6 18
7 13
8 15
9 18
10 12
Node is served by regular vehicle: g variables:
1
2
3
4
18
11
14
15
Customer assigment to Home delivery: gm variables:
1
2
3
4
Node total demands: ntd variables:
1 12 1
2 8 1
3 2 1
4 24 1
8 0 0
9 0 0
10 0 0
17 0 0
18 29 1
19 0 0
20 0 0
11 34 1
12 0 0
13 0 0
14 12 1
15 14 1
16 0 0
Customer's demand delivered to PL: l variables:
5
6
7
8
9
10
Lockers load <= capacity:
0 <= 79
29 <= 78
0 <= 92
0 <= 84
0 <= 81
34 <= 82
12 <= 89
0 <= 93
14 <= 75
0 <= 98
